width = 30;

n_circuits = 20;

circuit_x = array1d(1..20, [3, 3, 3, 3, 3, 3, 3, 3, 3, 3, 3, 3, 3, 3, 4, 4, 4, 4,
    4, 11]);

circuit_y = array1d(1..20, [3, 4, 5, 6, 7, 8, 9, 10, 11, 13, 14, 16, 19, 25, 3, 4,
    6, 8, 9, 30]);

opt_height = 30;

max_y = 30;

